12 24 9 10
9 8 3 12 3 3 16 12 20 19 5 8 7 4 20 18 4 16 6 18 9 2 7 8 
7.49 1.83 4.55 7.84 1.88 6.71 1.05 0.73 6.02 0.21 2.12 0.3 3.53 2.78 2.73 5.65 1.65 2.27 5.61 7.95 5.25 7.64 2.55 2.32 
0.94 6.54 6.81 7.3 5.94 5.47 3.29 4.35 3.88 5.13 7.49 4.11 1.47 0.22 4.73 3.78 2.81 5.04 3.34 0.78 2.62 2.73 2.87 4.57 
5.42 0.37 6.7 0.89 6.43 7.19 6.79 0.16 0.25 7.32 6.43 0.2 6.45 1.78 1.4 4.37 6.57 3.6 5.77 4.32 1.11 4.89 2.67 5.4 
6.75 4.75 4.76 3.08 6.39 4.39 7.66 2.31 5.67 1.35 2.61 4.23 1.85 1.11 4.84 0.07 5.3 5.72 2.77 1.71 0.04 0.42 2.66 6.64 
0.95 3.97 2.84 1.36 3.06 1.51 7.7 4.77 5.56 7.76 0.89 4.01 7.33 7 5.33 1.63 4.05 2.83 0.16 3.69 1.19 2.68 7.2 3.59 
0.35 6.68 7.35 5.44 7.01 4.36 5.24 2.96 1.11 1.54 2 3.68 2.23 2.32 7.51 5.96 2.83 1.2 7.58 1.84 6.1 3.85 0.73 7.25 
2.16 2.41 4.7 3.06 6.22 4.83 1.68 2.41 0.81 6.91 4.34 7.34 4.53 2.61 7.61 2.18 2.12 5.57 2.18 7.26 1.7 4.08 0.6 7.55 
4.57 2.88 1.45 6.32 5.35 0.79 2.56 1.75 6.43 1.23 0.34 4.63 2.8 0.26 2.43 5.09 6.47 5.03 3.58 0.26 1.17 0.69 1.36 5.55 
0.37 2.3 4.42 1.31 0.52 3.52 4.31 6.7 2.15 7.5 2.3 0.38 4.12 1.05 6.67 7.73 6.69 1.29 2.25 5.23 5.63 7.87 3.3 4.74 
4 4 4 4 4 4 4 4 4 4 4 4 4 4 4 4 4 4 4 4 4 4 4 4 
7.45 3.63 3.57 6.8 3.88 4.82 7.96 7.49 6.64 2.94 1.64 5.06 4.97 7.08 3.08 5.87 2.98 1.27 4.08 0.89 5.5 3.7 2.16 7.37 
6.67 6.44 2.07 3.18 1.21 2.62 7.46 0.93 6.07 5.08 5.14 7.84 2.94 4.9 6.21 2.79 0.64 5.78 1.35 5.43 2.16 5.38 3.15 6.28 
1 1 1 1 1 1 1 1 1 1 1 1 1 1 1 1 1 1 1 1 1 1 1 1 
1 1 1 1 1 1 1 1 1 1 1 1 1 1 1 1 1 1 1 1 1 1 1 1 
1 1 1 1 1 1 1 1 1 1 1 1 1 1 1 1 1 1 1 1 1 1 1 1 
1 1 1 1 1 1 1 1 1 1 1 1 1 1 1 1 1 1 1 1 1 1 1 1 
1 1 1 1 1 1 1 1 1 1 1 1 1 1 1 1 1 1 1 1 1 1 1 1 
1 1 1 1 1 1 1 1 1 1 1 1 1 1 1 1 1 1 1 1 1 1 1 1 
1 1 1 1 1 1 1 1 1 1 1 1 1 1 1 1 1 1 1 1 1 1 1 1 
1 1 1 1 1 1 1 1 1 1 1 1 1 1 1 1 1 1 1 1 1 1 1 1 
1 1 1 1 1 1 1 1 1 1 1 1 1 1 1 1 1 1 1 1 1 1 1 1 
1 1 1 1 1 1 1 1 1 1 1 1 1 1 1 1 1 1 1 1 1 1 1 1 
1 1 1 1 1 1 1 1 1 1 1 1 1 1 1 1 1 1 1 1 1 1 1 1 
1 1 1 1 1 1 1 1 1 1 1 1 1 1 1 1 1 1 1 1 1 1 1 1 
0.01 0.01 0.01 0.01 0.01 0.01 0.01 0.01 0.01 0.01 0.01 0.01 0.01 0.01 0.01 0.01 0.01 0.01 0.01 0.01 0.01 0.01 0.01 0.01 
0.02 0.02 0.02 0.02 0.02 0.02 0.02 0.02 0.02 0.02 0.02 0.02 0.02 0.02 0.02 0.02 0.02 0.02 0.02 0.02 0.02 0.02 0.02 0.02 
0.03 0.03 0.03 0.03 0.03 0.03 0.03 0.03 0.03 0.03 0.03 0.03 0.03 0.03 0.03 0.03 0.03 0.03 0.03 0.03 0.03 0.03 0.03 0.03 
0.04 0.04 0.04 0.04 0.04 0.04 0.04 0.04 0.04 0.04 0.04 0.04 0.04 0.04 0.04 0.04 0.04 0.04 0.04 0.04 0.04 0.04 0.04 0.04 
0.05 0.05 0.05 0.05 0.05 0.05 0.05 0.05 0.05 0.05 0.05 0.05 0.05 0.05 0.05 0.05 0.05 0.05 0.05 0.05 0.05 0.05 0.05 0.05 
0.06 0.06 0.06 0.06 0.06 0.06 0.06 0.06 0.06 0.06 0.06 0.06 0.06 0.06 0.06 0.06 0.06 0.06 0.06 0.06 0.06 0.06 0.06 0.06 
0.07 0.07 0.07 0.07 0.07 0.07 0.07 0.07 0.07 0.07 0.07 0.07 0.07 0.07 0.07 0.07 0.07 0.07 0.07 0.07 0.07 0.07 0.07 0.07 
0.08 0.08 0.08 0.08 0.08 0.08 0.08 0.08 0.08 0.08 0.08 0.08 0.08 0.08 0.08 0.08 0.08 0.08 0.08 0.08 0.08 0.08 0.08 0.08 
0.09 0.09 0.09 0.09 0.09 0.09 0.09 0.09 0.09 0.09 0.09 0.09 0.09 0.09 0.09 0.09 0.09 0.09 0.09 0.09 0.09 0.09 0.09 0.09 
0.1 0.1 0.1 0.1 0.1 0.1 0.1 0.1 0.1 0.1 0.1 0.1 0.1 0.1 0.1 0.1 0.1 0.1 0.1 0.1 0.1 0.1 0.1 0.1 
0.5 0.5 0.5 0.5 0.5 0.5 0.5 0.5 0.5 0.5 0.5 0.5 0.5 0.5 0.5 0.5 0.5 0.5 0.5 0.5 0.5 0.5 0.5 0.5 
1 1 1 1 1 1 1 1 1 1 1 1 1 1 1 1 1 1 1 1 1 1 1 1 
